c 
c G(k,n,p) graph
c graph gen seed     : 88100
c number of vertices : 70
c max number of edges: 1225
c number of classes  : 2
c edge density       : 0.200000
c edge probability   : 0.400000
c data structure     : sparse
c
c           Graph Stats
c number of vertices  : 70
c nonisolated vertices: 70
c number of edges     : 482
c edge density        : 0.199586
c max degree          : 24
c avg degree          : 13.77
c min degree          : 5
p col 70 482
e 1 68
e 1 67
e 1 63
e 1 61
e 1 59
e 1 58
e 1 56
e 1 53
e 1 43
e 1 42
e 1 38
e 1 34
e 1 23
e 1 18
e 1 17
e 1 15
e 1 12
e 1 9
e 1 5
e 1 2
e 2 65
e 2 57
e 2 39
e 2 29
e 2 27
e 2 26
e 2 24
e 2 22
e 2 19
e 2 14
e 2 13
e 3 57
e 3 52
e 3 51
e 3 47
e 3 27
e 3 26
e 3 24
e 3 20
e 3 19
e 3 13
e 4 65
e 4 52
e 4 51
e 4 47
e 4 39
e 4 29
e 4 27
e 4 25
e 4 24
e 4 22
e 4 19
e 4 13
e 5 57
e 5 54
e 5 52
e 5 46
e 5 44
e 5 39
e 5 33
e 5 26
e 5 20
e 5 19
e 5 14
e 5 13
e 6 60
e 6 40
e 6 36
e 6 33
e 6 24
e 6 20
e 7 65
e 7 60
e 7 57
e 7 54
e 7 51
e 7 48
e 7 47
e 7 46
e 7 40
e 7 39
e 7 36
e 7 33
e 7 27
e 7 25
e 7 22
e 7 14
e 7 13
e 8 60
e 8 52
e 8 51
e 8 47
e 8 46
e 8 35
e 8 29
e 8 27
e 8 25
e 8 22
e 8 19
e 8 14
e 8 11
e 9 54
e 9 48
e 9 44
e 9 40
e 9 36
e 9 33
e 9 24
e 9 13
e 9 11
e 10 63
e 10 58
e 10 56
e 10 50
e 10 43
e 10 42
e 10 38
e 10 37
e 10 32
e 10 31
e 10 18
e 10 16
e 11 70
e 11 68
e 11 66
e 11 64
e 11 63
e 11 62
e 11 61
e 11 55
e 11 49
e 11 34
e 11 32
e 11 28
e 11 17
e 11 12
e 12 65
e 12 52
e 12 51
e 12 46
e 12 40
e 12 24
e 12 20
e 12 19
e 12 14
e 13 69
e 13 64
e 13 62
e 13 58
e 13 56
e 13 53
e 13 45
e 13 42
e 13 38
e 13 37
e 13 34
e 13 31
e 13 28
e 13 21
e 13 18
e 13 15
e 14 67
e 14 64
e 14 63
e 14 61
e 14 58
e 14 49
e 14 43
e 14 38
e 14 37
e 14 32
e 14 21
e 14 18
e 15 65
e 15 57
e 15 54
e 15 52
e 15 47
e 15 39
e 15 35
e 15 25
e 16 51
e 16 46
e 16 40
e 16 36
e 16 35
e 16 29
e 16 27
e 16 26
e 16 25
e 16 24
e 16 22
e 16 19
e 17 60
e 17 57
e 17 52
e 17 51
e 17 48
e 17 39
e 17 35
e 17 29
e 17 27
e 17 26
e 17 24
e 17 20
e 17 19
e 18 60
e 18 57
e 18 54
e 18 52
e 18 46
e 18 40
e 18 27
e 18 22
e 19 69
e 19 61
e 19 59
e 19 56
e 19 55
e 19 50
e 19 49
e 19 45
e 19 37
e 19 34
e 19 31
e 20 70
e 20 68
e 20 66
e 20 64
e 20 62
e 20 61
e 20 59
e 20 49
e 20 31
e 20 30
e 21 65
e 21 57
e 21 52
e 21 48
e 21 44
e 21 39
e 21 35
e 21 29
e 21 27
e 21 26
e 22 68
e 22 66
e 22 64
e 22 59
e 22 56
e 22 53
e 22 37
e 22 32
e 23 65
e 23 57
e 23 51
e 23 39
e 24 69
e 24 68
e 24 67
e 24 64
e 24 62
e 24 61
e 24 59
e 24 56
e 24 50
e 24 49
e 24 43
e 24 38
e 24 37
e 24 34
e 24 32
e 24 30
e 25 68
e 25 67
e 25 66
e 25 63
e 25 62
e 25 59
e 25 50
e 25 38
e 25 37
e 25 32
e 25 31
e 25 30
e 26 70
e 26 68
e 26 61
e 26 59
e 26 58
e 26 56
e 26 53
e 26 42
e 26 41
e 26 37
e 26 30
e 27 66
e 27 64
e 27 63
e 27 61
e 27 59
e 27 56
e 27 50
e 27 43
e 27 41
e 27 38
e 27 32
e 27 31
e 28 54
e 28 46
e 28 33
e 29 67
e 29 64
e 29 62
e 29 61
e 29 59
e 29 55
e 29 49
e 29 45
e 29 43
e 29 34
e 29 31
e 29 30
e 30 65
e 30 60
e 30 57
e 30 48
e 30 46
e 30 44
e 30 40
e 30 39
e 30 36
e 31 60
e 31 57
e 31 52
e 31 51
e 31 47
e 31 44
e 31 40
e 31 39
e 31 35
e 31 33
e 32 65
e 32 60
e 32 57
e 32 52
e 32 47
e 32 46
e 32 39
e 32 36
e 32 35
e 33 67
e 33 63
e 33 59
e 33 58
e 33 56
e 33 50
e 33 49
e 33 41
e 33 34
e 34 52
e 34 47
e 34 46
e 34 44
e 34 40
e 34 39
e 34 35
e 35 68
e 35 63
e 35 61
e 35 59
e 35 56
e 35 55
e 35 53
e 35 43
e 35 41
e 35 37
e 36 68
e 36 62
e 36 59
e 36 58
e 36 56
e 36 55
e 36 50
e 36 42
e 37 52
e 37 51
e 37 48
e 37 47
e 38 54
e 38 47
e 38 46
e 39 63
e 39 61
e 39 59
e 39 50
e 39 42
e 39 41
e 40 64
e 40 63
e 40 61
e 40 58
e 40 50
e 40 43
e 41 65
e 41 60
e 41 57
e 41 52
e 41 47
e 41 44
e 42 65
e 42 60
e 42 46
e 43 65
e 43 57
e 43 52
e 43 48
e 44 70
e 44 69
e 44 67
e 44 64
e 44 61
e 44 58
e 44 53
e 44 50
e 44 49
e 45 65
e 45 51
e 45 48
e 46 66
e 46 62
e 46 59
e 46 55
e 46 53
e 46 50
e 47 70
e 47 69
e 47 68
e 47 66
e 47 64
e 47 63
e 47 62
e 47 61
e 47 53
e 48 69
e 48 68
e 48 64
e 48 63
e 48 61
e 48 56
e 48 53
e 48 49
e 49 65
e 49 60
e 49 54
e 49 52
e 49 51
e 50 65
e 50 54
e 51 70
e 51 69
e 51 66
e 51 55
e 52 68
e 52 64
e 52 62
e 52 61
e 52 56
e 53 60
e 54 69
e 54 66
e 54 64
e 57 70
e 57 69
e 57 68
e 57 66
e 58 60
e 59 60
e 60 70
e 60 68
e 65 70
e 65 67
